10J3M/DAT/10J3MUTA-11.dat
10 3
3.3911 11.4996
3.9499 15.6017
15.8887 252.4508
38.0611 1448.6473
44.7974 2006.807
3.4442 11.8625
14.3423 205.7016
19.7945 391.8222
26.03 677.5609
6.7465 45.5153
1266.8672