10J3M/SOL/10J3MUTA-11.sol
solution status: optimal solution found
objective value:                     73.4343087540582
x#1#3                                               1 	(obj:0)
x#3#1                                               1 	(obj:0)
x#4#1                               0.907525813951907 	(obj:0)
x#4#3                              0.0924741860480929 	(obj:0)
x#5#2                                               1 	(obj:0)
x#6#1                                               1 	(obj:0)
x#7#2                               0.102585136491444 	(obj:0)
x#7#3                               0.534494126196544 	(obj:0)
x#8#1                               0.238922413309911 	(obj:0)
x#8#2                               0.761077586690089 	(obj:0)
x#9#1                                0.13047640399868 	(obj:0)
x#9#3                                0.86952359600132 	(obj:0)
x#10#2                                              1 	(obj:0)
z                                    73.4343087540582 	(obj:1)
